<?xml version="1.0" encoding="UTF-8"?><osil xmlns="os.optimizationservices.org" xmlns:xsi="http://www.w3.org/2001/XMLSchema-instance" xsi:schemaLocation="os.optimizationservices.org http://www.optimizationservices.org/schemas/2.0/OSiL.xsd"><instanceHeader><name>inscribedsquare03</name></instanceHeader><instanceData><variables numberOfVariables="8"><var name="x2" lb="-3.14159265358979" ub="3.14159265358979"/><var name="x3" lb="-3.14159265358979" ub="3.14159265358979"/><var name="x4" lb="-3.14159265358979" ub="3.14159265358979"/><var name="x5" lb="-3.14159265358979" ub="3.14159265358979"/><var name="x6" lb="-INF"/><var name="x7" lb="-INF"/><var name="x8"/><var name="x9"/></variables><objectives><obj maxOrMin="max" name="defObj_objvar" numberOfObjCoef="0"/></objectives><constraints numberOfConstraints="8"><con name="e2" lb="0" ub="0"/><con name="e3" lb="0" ub="0"/><con name="e4" lb="0" ub="0"/><con name="e5" lb="0" ub="0"/><con name="e6" lb="0" ub="0"/><con name="e7" lb="0" ub="0"/><con name="e8" lb="0" ub="0"/><con name="e9" lb="0" ub="0"/></constraints><linearConstraintCoefficients numberOfValues="16"><start><el mult="3" incr="1">0</el><el mult="4" incr="2">4</el><el>13</el><el>16</el></start><colIdx><el>4</el><el>5</el><el>4</el><el>6</el><el>5</el><el>7</el><el>4</el><el>7</el><el>5</el><el>6</el><el>4</el><el>6</el><el>7</el><el mult="3" incr="1">5</el></colIdx><value><el mult="7">-1</el><el>1</el><el mult="4">-1</el><el>1</el><el mult="3">-1</el></value></linearConstraintCoefficients><quadraticCoefficients numberOfQuadraticTerms="2"><qTerm idx="-1" idxOne="6" idxTwo="6" coef="1"/><qTerm idx="-1" idxOne="7" idxTwo="7" coef="1"/></quadraticCoefficients><nonlinearExpressions numberOfNonlinearExpressions="8"><nl idx="0"><sum><product><cos><sum><product><variable idx="0"/><variable idx="0" coef="-1"/></product><variable idx="0"/></sum></cos><sin><variable idx="0"/></sin></product><product><variable idx="0"/><variable idx="0" coef="-1"/><sin><sum><product><abs><variable idx="0"/></abs><number value="3"/></product><variable idx="0" coef="2"/></sum></sin></product></sum></nl><nl idx="1"><sum><product><sin><variable idx="0"/></sin><variable idx="0"/></product><product><variable idx="0" coef=".5"/><variable idx="0"/><cos><variable idx="0"/></cos></product></sum></nl><nl idx="2"><sum><product><cos><sum><product><variable idx="1"/><variable idx="1" coef="-1"/></product><variable idx="1"/></sum></cos><sin><variable idx="1"/></sin></product><product><variable idx="1"/><variable idx="1" coef="-1"/><sin><sum><product><abs><variable idx="1"/></abs><number value="3"/></product><variable idx="1" coef="2"/></sum></sin></product></sum></nl><nl idx="3"><sum><product><sin><variable idx="1"/></sin><variable idx="1"/></product><product><variable idx="1" coef=".5"/><variable idx="1"/><cos><variable idx="1"/></cos></product></sum></nl><nl idx="4"><sum><product><cos><sum><product><variable idx="2"/><variable idx="2" coef="-1"/></product><variable idx="2"/></sum></cos><sin><variable idx="2"/></sin></product><product><variable idx="2"/><variable idx="2" coef="-1"/><sin><sum><product><abs><variable idx="2"/></abs><number value="3"/></product><variable idx="2" coef="2"/></sum></sin></product></sum></nl><nl idx="5"><sum><product><sin><variable idx="2"/></sin><variable idx="2"/></product><product><variable idx="2" coef=".5"/><variable idx="2"/><cos><variable idx="2"/></cos></product></sum></nl><nl idx="6"><sum><product><cos><sum><product><variable idx="3"/><variable idx="3" coef="-1"/></product><variable idx="3"/></sum></cos><sin><variable idx="3"/></sin></product><product><variable idx="3"/><variable idx="3" coef="-1"/><sin><sum><product><abs><variable idx="3"/></abs><number value="3"/></product><variable idx="3" coef="2"/></sum></sin></product></sum></nl><nl idx="7"><sum><product><sin><variable idx="3"/></sin><variable idx="3"/></product><product><variable idx="3" coef=".5"/><variable idx="3"/><cos><variable idx="3"/></cos></product></sum></nl></nonlinearExpressions></instanceData></osil>